DIMENSION: 7
EDGE_WEIGHT_TYPE: EXPLICIT
EDGE_WEIGHT_FORMAT: FULL_MATRIX
EDGE_WEIGHT_SECTION:
32767 32767 41 93 94 61 90 
32767 32767 40 13 23 10 43 
41 40 32767 47 32767 53 77 
93 13 47 32767 55 61 70 
94 23 32767 55 32767 32767 65 
61 10 53 61 32767 32767 31 
90 43 77 70 65 31 32767 
EOF